(declare-fun C1 () Real)
(declare-fun C2 () Real)
(declare-fun C3 () Real)
(declare-fun C4 () Real)
(declare-fun C5 () Real)
(declare-fun C6 () Real)
(declare-fun C7 () Real)
(declare-fun C8 () Real)
(declare-fun C9 () Real)
(declare-fun C10 () Real)
(declare-fun k () Real)
(assert (let 
(( $goal (<= (+ (/ C1 220 ) (/ C2 278 ) (/ C3 530 ) (/ C4 1619 ) (/ C5 1939 ) (/ C6 2222 ) (/ C7 3490 ) (/ C8 3840 ) (/ C9 4126 ) (/ C10 4754 ) ) k ) ))
(let 
(($phi ( and ( or  (>= 220 (+  (* 1 C1)  (* 0 C2)  (* 0 C3)  (* 0 C4)  (* 0 C5)  (* 0 C6)  (* 0 C7)  (* 0 C8)  (* 0 C9)  (* 0 C10) )) ) ( or  (>= 220 (+  (* 1 C1)  (* 1 C2)  (* 0 C3)  (* 0 C4)  (* 0 C5)  (* 0 C6)  (* 0 C7)  (* 0 C8)  (* 0 C9)  (* 0 C10) ))  (>= 278 (+  (* 2 C1)  (* 1 C2)  (* 0 C3)  (* 0 C4)  (* 0 C5)  (* 0 C6)  (* 0 C7)  (* 0 C8)  (* 0 C9)  (* 0 C10) )) ) ( or  (>= 220 (+  (* 1 C1)  (* 1 C2)  (* 1 C3)  (* 0 C4)  (* 0 C5)  (* 0 C6)  (* 0 C7)  (* 0 C8)  (* 0 C9)  (* 0 C10) ))  (>= 278 (+  (* 2 C1)  (* 1 C2)  (* 1 C3)  (* 0 C4)  (* 0 C5)  (* 0 C6)  (* 0 C7)  (* 0 C8)  (* 0 C9)  (* 0 C10) ))  (>= 440 (+  (* 2 C1)  (* 2 C2)  (* 1 C3)  (* 0 C4)  (* 0 C5)  (* 0 C6)  (* 0 C7)  (* 0 C8)  (* 0 C9)  (* 0 C10) ))  (>= 530 (+  (* 3 C1)  (* 2 C2)  (* 1 C3)  (* 0 C4)  (* 0 C5)  (* 0 C6)  (* 0 C7)  (* 0 C8)  (* 0 C9)  (* 0 C10) )) ) ( or  (>= 1320 (+  (* 6 C1)  (* 5 C2)  (* 3 C3)  (* 1 C4)  (* 0 C5)  (* 0 C6)  (* 0 C7)  (* 0 C8)  (* 0 C9)  (* 0 C10) ))  (>= 1390 (+  (* 7 C1)  (* 5 C2)  (* 3 C3)  (* 1 C4)  (* 0 C5)  (* 0 C6)  (* 0 C7)  (* 0 C8)  (* 0 C9)  (* 0 C10) ))  (>= 1540 (+  (* 7 C1)  (* 6 C2)  (* 3 C3)  (* 1 C4)  (* 0 C5)  (* 0 C6)  (* 0 C7)  (* 0 C8)  (* 0 C9)  (* 0 C10) ))  (>= 1590 (+  (* 8 C1)  (* 6 C2)  (* 3 C3)  (* 1 C4)  (* 0 C5)  (* 0 C6)  (* 0 C7)  (* 0 C8)  (* 0 C9)  (* 0 C10) ))  (>= 1619 (+  (* 8 C1)  (* 6 C2)  (* 4 C3)  (* 1 C4)  (* 0 C5)  (* 0 C6)  (* 0 C7)  (* 0 C8)  (* 0 C9)  (* 0 C10) )) ) ( or  (>= 1320 (+  (* 6 C1)  (* 5 C2)  (* 3 C3)  (* 1 C4)  (* 1 C5)  (* 0 C6)  (* 0 C7)  (* 0 C8)  (* 0 C9)  (* 0 C10) ))  (>= 1390 (+  (* 7 C1)  (* 5 C2)  (* 3 C3)  (* 1 C4)  (* 1 C5)  (* 0 C6)  (* 0 C7)  (* 0 C8)  (* 0 C9)  (* 0 C10) ))  (>= 1540 (+  (* 7 C1)  (* 6 C2)  (* 3 C3)  (* 1 C4)  (* 1 C5)  (* 0 C6)  (* 0 C7)  (* 0 C8)  (* 0 C9)  (* 0 C10) ))  (>= 1590 (+  (* 8 C1)  (* 6 C2)  (* 3 C3)  (* 1 C4)  (* 1 C5)  (* 0 C6)  (* 0 C7)  (* 0 C8)  (* 0 C9)  (* 0 C10) ))  (>= 1619 (+  (* 8 C1)  (* 6 C2)  (* 4 C3)  (* 1 C4)  (* 1 C5)  (* 0 C6)  (* 0 C7)  (* 0 C8)  (* 0 C9)  (* 0 C10) ))  (>= 1668 (+  (* 8 C1)  (* 6 C2)  (* 4 C3)  (* 2 C4)  (* 1 C5)  (* 0 C6)  (* 0 C7)  (* 0 C8)  (* 0 C9)  (* 0 C10) ))  (>= 1760 (+  (* 8 C1)  (* 7 C2)  (* 4 C3)  (* 2 C4)  (* 1 C5)  (* 0 C6)  (* 0 C7)  (* 0 C8)  (* 0 C9)  (* 0 C10) ))  (>= 1939 (+  (* 9 C1)  (* 7 C2)  (* 4 C3)  (* 2 C4)  (* 1 C5)  (* 0 C6)  (* 0 C7)  (* 0 C8)  (* 0 C9)  (* 0 C10) )) ) ( or  (>= 1320 (+  (* 6 C1)  (* 5 C2)  (* 3 C3)  (* 1 C4)  (* 1 C5)  (* 1 C6)  (* 0 C7)  (* 0 C8)  (* 0 C9)  (* 0 C10) ))  (>= 1390 (+  (* 7 C1)  (* 5 C2)  (* 3 C3)  (* 1 C4)  (* 1 C5)  (* 1 C6)  (* 0 C7)  (* 0 C8)  (* 0 C9)  (* 0 C10) ))  (>= 1540 (+  (* 7 C1)  (* 6 C2)  (* 3 C3)  (* 1 C4)  (* 1 C5)  (* 1 C6)  (* 0 C7)  (* 0 C8)  (* 0 C9)  (* 0 C10) ))  (>= 1590 (+  (* 8 C1)  (* 6 C2)  (* 3 C3)  (* 1 C4)  (* 1 C5)  (* 1 C6)  (* 0 C7)  (* 0 C8)  (* 0 C9)  (* 0 C10) ))  (>= 1619 (+  (* 8 C1)  (* 6 C2)  (* 4 C3)  (* 1 C4)  (* 1 C5)  (* 1 C6)  (* 0 C7)  (* 0 C8)  (* 0 C9)  (* 0 C10) ))  (>= 1668 (+  (* 8 C1)  (* 6 C2)  (* 4 C3)  (* 2 C4)  (* 1 C5)  (* 1 C6)  (* 0 C7)  (* 0 C8)  (* 0 C9)  (* 0 C10) ))  (>= 1760 (+  (* 8 C1)  (* 7 C2)  (* 4 C3)  (* 2 C4)  (* 1 C5)  (* 1 C6)  (* 0 C7)  (* 0 C8)  (* 0 C9)  (* 0 C10) ))  (>= 1939 (+  (* 9 C1)  (* 7 C2)  (* 4 C3)  (* 2 C4)  (* 1 C5)  (* 1 C6)  (* 0 C7)  (* 0 C8)  (* 0 C9)  (* 0 C10) ))  (>= 1946 (+  (* 9 C1)  (* 7 C2)  (* 4 C3)  (* 2 C4)  (* 2 C5)  (* 1 C6)  (* 0 C7)  (* 0 C8)  (* 0 C9)  (* 0 C10) ))  (>= 1980 (+  (* 9 C1)  (* 8 C2)  (* 4 C3)  (* 2 C4)  (* 2 C5)  (* 1 C6)  (* 0 C7)  (* 0 C8)  (* 0 C9)  (* 0 C10) ))  (>= 2120 (+  (* 10 C1)  (* 8 C2)  (* 4 C3)  (* 2 C4)  (* 2 C5)  (* 1 C6)  (* 0 C7)  (* 0 C8)  (* 0 C9)  (* 0 C10) ))  (>= 2200 (+  (* 10 C1)  (* 8 C2)  (* 5 C3)  (* 2 C4)  (* 2 C5)  (* 1 C6)  (* 0 C7)  (* 0 C8)  (* 0 C9)  (* 0 C10) ))  (>= 2222 (+  (* 11 C1)  (* 8 C2)  (* 5 C3)  (* 2 C4)  (* 2 C5)  (* 1 C6)  (* 0 C7)  (* 0 C8)  (* 0 C9)  (* 0 C10) )) ) ( or  (>= 1320 (+  (* 6 C1)  (* 5 C2)  (* 3 C3)  (* 1 C4)  (* 1 C5)  (* 1 C6)  (* 1 C7)  (* 0 C8)  (* 0 C9)  (* 0 C10) ))  (>= 1390 (+  (* 7 C1)  (* 5 C2)  (* 3 C3)  (* 1 C4)  (* 1 C5)  (* 1 C6)  (* 1 C7)  (* 0 C8)  (* 0 C9)  (* 0 C10) ))  (>= 1540 (+  (* 7 C1)  (* 6 C2)  (* 3 C3)  (* 1 C4)  (* 1 C5)  (* 1 C6)  (* 1 C7)  (* 0 C8)  (* 0 C9)  (* 0 C10) ))  (>= 1590 (+  (* 8 C1)  (* 6 C2)  (* 3 C3)  (* 1 C4)  (* 1 C5)  (* 1 C6)  (* 1 C7)  (* 0 C8)  (* 0 C9)  (* 0 C10) ))  (>= 1619 (+  (* 8 C1)  (* 6 C2)  (* 4 C3)  (* 1 C4)  (* 1 C5)  (* 1 C6)  (* 1 C7)  (* 0 C8)  (* 0 C9)  (* 0 C10) ))  (>= 1668 (+  (* 8 C1)  (* 6 C2)  (* 4 C3)  (* 2 C4)  (* 1 C5)  (* 1 C6)  (* 1 C7)  (* 0 C8)  (* 0 C9)  (* 0 C10) ))  (>= 1760 (+  (* 8 C1)  (* 7 C2)  (* 4 C3)  (* 2 C4)  (* 1 C5)  (* 1 C6)  (* 1 C7)  (* 0 C8)  (* 0 C9)  (* 0 C10) ))  (>= 1939 (+  (* 9 C1)  (* 7 C2)  (* 4 C3)  (* 2 C4)  (* 1 C5)  (* 1 C6)  (* 1 C7)  (* 0 C8)  (* 0 C9)  (* 0 C10) ))  (>= 1946 (+  (* 9 C1)  (* 7 C2)  (* 4 C3)  (* 2 C4)  (* 2 C5)  (* 1 C6)  (* 1 C7)  (* 0 C8)  (* 0 C9)  (* 0 C10) ))  (>= 1980 (+  (* 9 C1)  (* 8 C2)  (* 4 C3)  (* 2 C4)  (* 2 C5)  (* 1 C6)  (* 1 C7)  (* 0 C8)  (* 0 C9)  (* 0 C10) ))  (>= 2120 (+  (* 10 C1)  (* 8 C2)  (* 4 C3)  (* 2 C4)  (* 2 C5)  (* 1 C6)  (* 1 C7)  (* 0 C8)  (* 0 C9)  (* 0 C10) ))  (>= 2200 (+  (* 10 C1)  (* 8 C2)  (* 5 C3)  (* 2 C4)  (* 2 C5)  (* 1 C6)  (* 1 C7)  (* 0 C8)  (* 0 C9)  (* 0 C10) ))  (>= 2222 (+  (* 11 C1)  (* 8 C2)  (* 5 C3)  (* 2 C4)  (* 2 C5)  (* 1 C6)  (* 1 C7)  (* 0 C8)  (* 0 C9)  (* 0 C10) ))  (>= 2860 (+  (* 13 C1)  (* 11 C2)  (* 6 C3)  (* 2 C4)  (* 2 C5)  (* 2 C6)  (* 1 C7)  (* 0 C8)  (* 0 C9)  (* 0 C10) ))  (>= 3058 (+  (* 14 C1)  (* 11 C2)  (* 6 C3)  (* 2 C4)  (* 2 C5)  (* 2 C6)  (* 1 C7)  (* 0 C8)  (* 0 C9)  (* 0 C10) ))  (>= 3080 (+  (* 14 C1)  (* 12 C2)  (* 6 C3)  (* 2 C4)  (* 2 C5)  (* 2 C6)  (* 1 C7)  (* 0 C8)  (* 0 C9)  (* 0 C10) ))  (>= 3180 (+  (* 15 C1)  (* 12 C2)  (* 6 C3)  (* 2 C4)  (* 2 C5)  (* 2 C6)  (* 1 C7)  (* 0 C8)  (* 0 C9)  (* 0 C10) ))  (>= 3238 (+  (* 15 C1)  (* 12 C2)  (* 7 C3)  (* 2 C4)  (* 2 C5)  (* 2 C6)  (* 1 C7)  (* 0 C8)  (* 0 C9)  (* 0 C10) ))  (>= 3300 (+  (* 15 C1)  (* 12 C2)  (* 7 C3)  (* 3 C4)  (* 2 C5)  (* 2 C6)  (* 1 C7)  (* 0 C8)  (* 0 C9)  (* 0 C10) ))  (>= 3336 (+  (* 16 C1)  (* 12 C2)  (* 7 C3)  (* 3 C4)  (* 2 C5)  (* 2 C6)  (* 1 C7)  (* 0 C8)  (* 0 C9)  (* 0 C10) ))  (>= 3490 (+  (* 16 C1)  (* 13 C2)  (* 7 C3)  (* 3 C4)  (* 2 C5)  (* 2 C6)  (* 1 C7)  (* 0 C8)  (* 0 C9)  (* 0 C10) )) ) ( or  (>= 1320 (+  (* 6 C1)  (* 5 C2)  (* 3 C3)  (* 1 C4)  (* 1 C5)  (* 1 C6)  (* 1 C7)  (* 1 C8)  (* 0 C9)  (* 0 C10) ))  (>= 1390 (+  (* 7 C1)  (* 5 C2)  (* 3 C3)  (* 1 C4)  (* 1 C5)  (* 1 C6)  (* 1 C7)  (* 1 C8)  (* 0 C9)  (* 0 C10) ))  (>= 1540 (+  (* 7 C1)  (* 6 C2)  (* 3 C3)  (* 1 C4)  (* 1 C5)  (* 1 C6)  (* 1 C7)  (* 1 C8)  (* 0 C9)  (* 0 C10) ))  (>= 1590 (+  (* 8 C1)  (* 6 C2)  (* 3 C3)  (* 1 C4)  (* 1 C5)  (* 1 C6)  (* 1 C7)  (* 1 C8)  (* 0 C9)  (* 0 C10) ))  (>= 1619 (+  (* 8 C1)  (* 6 C2)  (* 4 C3)  (* 1 C4)  (* 1 C5)  (* 1 C6)  (* 1 C7)  (* 1 C8)  (* 0 C9)  (* 0 C10) ))  (>= 1668 (+  (* 8 C1)  (* 6 C2)  (* 4 C3)  (* 2 C4)  (* 1 C5)  (* 1 C6)  (* 1 C7)  (* 1 C8)  (* 0 C9)  (* 0 C10) ))  (>= 1760 (+  (* 8 C1)  (* 7 C2)  (* 4 C3)  (* 2 C4)  (* 1 C5)  (* 1 C6)  (* 1 C7)  (* 1 C8)  (* 0 C9)  (* 0 C10) ))  (>= 1939 (+  (* 9 C1)  (* 7 C2)  (* 4 C3)  (* 2 C4)  (* 1 C5)  (* 1 C6)  (* 1 C7)  (* 1 C8)  (* 0 C9)  (* 0 C10) ))  (>= 1946 (+  (* 9 C1)  (* 7 C2)  (* 4 C3)  (* 2 C4)  (* 2 C5)  (* 1 C6)  (* 1 C7)  (* 1 C8)  (* 0 C9)  (* 0 C10) ))  (>= 1980 (+  (* 9 C1)  (* 8 C2)  (* 4 C3)  (* 2 C4)  (* 2 C5)  (* 1 C6)  (* 1 C7)  (* 1 C8)  (* 0 C9)  (* 0 C10) ))  (>= 2120 (+  (* 10 C1)  (* 8 C2)  (* 4 C3)  (* 2 C4)  (* 2 C5)  (* 1 C6)  (* 1 C7)  (* 1 C8)  (* 0 C9)  (* 0 C10) ))  (>= 2200 (+  (* 10 C1)  (* 8 C2)  (* 5 C3)  (* 2 C4)  (* 2 C5)  (* 1 C6)  (* 1 C7)  (* 1 C8)  (* 0 C9)  (* 0 C10) ))  (>= 2222 (+  (* 11 C1)  (* 8 C2)  (* 5 C3)  (* 2 C4)  (* 2 C5)  (* 1 C6)  (* 1 C7)  (* 1 C8)  (* 0 C9)  (* 0 C10) ))  (>= 2860 (+  (* 13 C1)  (* 11 C2)  (* 6 C3)  (* 2 C4)  (* 2 C5)  (* 2 C6)  (* 1 C7)  (* 1 C8)  (* 0 C9)  (* 0 C10) ))  (>= 3058 (+  (* 14 C1)  (* 11 C2)  (* 6 C3)  (* 2 C4)  (* 2 C5)  (* 2 C6)  (* 1 C7)  (* 1 C8)  (* 0 C9)  (* 0 C10) ))  (>= 3080 (+  (* 14 C1)  (* 12 C2)  (* 6 C3)  (* 2 C4)  (* 2 C5)  (* 2 C6)  (* 1 C7)  (* 1 C8)  (* 0 C9)  (* 0 C10) ))  (>= 3180 (+  (* 15 C1)  (* 12 C2)  (* 6 C3)  (* 2 C4)  (* 2 C5)  (* 2 C6)  (* 1 C7)  (* 1 C8)  (* 0 C9)  (* 0 C10) ))  (>= 3238 (+  (* 15 C1)  (* 12 C2)  (* 7 C3)  (* 2 C4)  (* 2 C5)  (* 2 C6)  (* 1 C7)  (* 1 C8)  (* 0 C9)  (* 0 C10) ))  (>= 3300 (+  (* 15 C1)  (* 12 C2)  (* 7 C3)  (* 3 C4)  (* 2 C5)  (* 2 C6)  (* 1 C7)  (* 1 C8)  (* 0 C9)  (* 0 C10) ))  (>= 3336 (+  (* 16 C1)  (* 12 C2)  (* 7 C3)  (* 3 C4)  (* 2 C5)  (* 2 C6)  (* 1 C7)  (* 1 C8)  (* 0 C9)  (* 0 C10) ))  (>= 3490 (+  (* 16 C1)  (* 13 C2)  (* 7 C3)  (* 3 C4)  (* 2 C5)  (* 2 C6)  (* 1 C7)  (* 1 C8)  (* 0 C9)  (* 0 C10) ))  (>= 3520 (+  (* 16 C1)  (* 13 C2)  (* 7 C3)  (* 3 C4)  (* 2 C5)  (* 2 C6)  (* 2 C7)  (* 1 C8)  (* 0 C9)  (* 0 C10) ))  (>= 3614 (+  (* 17 C1)  (* 13 C2)  (* 7 C3)  (* 3 C4)  (* 2 C5)  (* 2 C6)  (* 2 C7)  (* 1 C8)  (* 0 C9)  (* 0 C10) ))  (>= 3710 (+  (* 17 C1)  (* 14 C2)  (* 7 C3)  (* 3 C4)  (* 2 C5)  (* 2 C6)  (* 2 C7)  (* 1 C8)  (* 0 C9)  (* 0 C10) ))  (>= 3740 (+  (* 17 C1)  (* 14 C2)  (* 8 C3)  (* 3 C4)  (* 2 C5)  (* 2 C6)  (* 2 C7)  (* 1 C8)  (* 0 C9)  (* 0 C10) ))  (>= 3840 (+  (* 18 C1)  (* 14 C2)  (* 8 C3)  (* 3 C4)  (* 2 C5)  (* 2 C6)  (* 2 C7)  (* 1 C8)  (* 0 C9)  (* 0 C10) )) ) ( or  (>= 1320 (+  (* 6 C1)  (* 5 C2)  (* 3 C3)  (* 1 C4)  (* 1 C5)  (* 1 C6)  (* 1 C7)  (* 1 C8)  (* 1 C9)  (* 0 C10) ))  (>= 1390 (+  (* 7 C1)  (* 5 C2)  (* 3 C3)  (* 1 C4)  (* 1 C5)  (* 1 C6)  (* 1 C7)  (* 1 C8)  (* 1 C9)  (* 0 C10) ))  (>= 1540 (+  (* 7 C1)  (* 6 C2)  (* 3 C3)  (* 1 C4)  (* 1 C5)  (* 1 C6)  (* 1 C7)  (* 1 C8)  (* 1 C9)  (* 0 C10) ))  (>= 1590 (+  (* 8 C1)  (* 6 C2)  (* 3 C3)  (* 1 C4)  (* 1 C5)  (* 1 C6)  (* 1 C7)  (* 1 C8)  (* 1 C9)  (* 0 C10) ))  (>= 1619 (+  (* 8 C1)  (* 6 C2)  (* 4 C3)  (* 1 C4)  (* 1 C5)  (* 1 C6)  (* 1 C7)  (* 1 C8)  (* 1 C9)  (* 0 C10) ))  (>= 1668 (+  (* 8 C1)  (* 6 C2)  (* 4 C3)  (* 2 C4)  (* 1 C5)  (* 1 C6)  (* 1 C7)  (* 1 C8)  (* 1 C9)  (* 0 C10) ))  (>= 1760 (+  (* 8 C1)  (* 7 C2)  (* 4 C3)  (* 2 C4)  (* 1 C5)  (* 1 C6)  (* 1 C7)  (* 1 C8)  (* 1 C9)  (* 0 C10) ))  (>= 1939 (+  (* 9 C1)  (* 7 C2)  (* 4 C3)  (* 2 C4)  (* 1 C5)  (* 1 C6)  (* 1 C7)  (* 1 C8)  (* 1 C9)  (* 0 C10) ))  (>= 1946 (+  (* 9 C1)  (* 7 C2)  (* 4 C3)  (* 2 C4)  (* 2 C5)  (* 1 C6)  (* 1 C7)  (* 1 C8)  (* 1 C9)  (* 0 C10) ))  (>= 1980 (+  (* 9 C1)  (* 8 C2)  (* 4 C3)  (* 2 C4)  (* 2 C5)  (* 1 C6)  (* 1 C7)  (* 1 C8)  (* 1 C9)  (* 0 C10) ))  (>= 2120 (+  (* 10 C1)  (* 8 C2)  (* 4 C3)  (* 2 C4)  (* 2 C5)  (* 1 C6)  (* 1 C7)  (* 1 C8)  (* 1 C9)  (* 0 C10) ))  (>= 2200 (+  (* 10 C1)  (* 8 C2)  (* 5 C3)  (* 2 C4)  (* 2 C5)  (* 1 C6)  (* 1 C7)  (* 1 C8)  (* 1 C9)  (* 0 C10) ))  (>= 2222 (+  (* 11 C1)  (* 8 C2)  (* 5 C3)  (* 2 C4)  (* 2 C5)  (* 1 C6)  (* 1 C7)  (* 1 C8)  (* 1 C9)  (* 0 C10) ))  (>= 2860 (+  (* 13 C1)  (* 11 C2)  (* 6 C3)  (* 2 C4)  (* 2 C5)  (* 2 C6)  (* 1 C7)  (* 1 C8)  (* 1 C9)  (* 0 C10) ))  (>= 3058 (+  (* 14 C1)  (* 11 C2)  (* 6 C3)  (* 2 C4)  (* 2 C5)  (* 2 C6)  (* 1 C7)  (* 1 C8)  (* 1 C9)  (* 0 C10) ))  (>= 3080 (+  (* 14 C1)  (* 12 C2)  (* 6 C3)  (* 2 C4)  (* 2 C5)  (* 2 C6)  (* 1 C7)  (* 1 C8)  (* 1 C9)  (* 0 C10) ))  (>= 3180 (+  (* 15 C1)  (* 12 C2)  (* 6 C3)  (* 2 C4)  (* 2 C5)  (* 2 C6)  (* 1 C7)  (* 1 C8)  (* 1 C9)  (* 0 C10) ))  (>= 3238 (+  (* 15 C1)  (* 12 C2)  (* 7 C3)  (* 2 C4)  (* 2 C5)  (* 2 C6)  (* 1 C7)  (* 1 C8)  (* 1 C9)  (* 0 C10) ))  (>= 3300 (+  (* 15 C1)  (* 12 C2)  (* 7 C3)  (* 3 C4)  (* 2 C5)  (* 2 C6)  (* 1 C7)  (* 1 C8)  (* 1 C9)  (* 0 C10) ))  (>= 3336 (+  (* 16 C1)  (* 12 C2)  (* 7 C3)  (* 3 C4)  (* 2 C5)  (* 2 C6)  (* 1 C7)  (* 1 C8)  (* 1 C9)  (* 0 C10) ))  (>= 3490 (+  (* 16 C1)  (* 13 C2)  (* 7 C3)  (* 3 C4)  (* 2 C5)  (* 2 C6)  (* 1 C7)  (* 1 C8)  (* 1 C9)  (* 0 C10) ))  (>= 3520 (+  (* 16 C1)  (* 13 C2)  (* 7 C3)  (* 3 C4)  (* 2 C5)  (* 2 C6)  (* 2 C7)  (* 1 C8)  (* 1 C9)  (* 0 C10) ))  (>= 3614 (+  (* 17 C1)  (* 13 C2)  (* 7 C3)  (* 3 C4)  (* 2 C5)  (* 2 C6)  (* 2 C7)  (* 1 C8)  (* 1 C9)  (* 0 C10) ))  (>= 3710 (+  (* 17 C1)  (* 14 C2)  (* 7 C3)  (* 3 C4)  (* 2 C5)  (* 2 C6)  (* 2 C7)  (* 1 C8)  (* 1 C9)  (* 0 C10) ))  (>= 3740 (+  (* 17 C1)  (* 14 C2)  (* 8 C3)  (* 3 C4)  (* 2 C5)  (* 2 C6)  (* 2 C7)  (* 1 C8)  (* 1 C9)  (* 0 C10) ))  (>= 3840 (+  (* 18 C1)  (* 14 C2)  (* 8 C3)  (* 3 C4)  (* 2 C5)  (* 2 C6)  (* 2 C7)  (* 1 C8)  (* 1 C9)  (* 0 C10) ))  (>= 3878 (+  (* 18 C1)  (* 14 C2)  (* 8 C3)  (* 3 C4)  (* 2 C5)  (* 2 C6)  (* 2 C7)  (* 2 C8)  (* 1 C9)  (* 0 C10) ))  (>= 3892 (+  (* 18 C1)  (* 14 C2)  (* 8 C3)  (* 3 C4)  (* 3 C5)  (* 2 C6)  (* 2 C7)  (* 2 C8)  (* 1 C9)  (* 0 C10) ))  (>= 3960 (+  (* 18 C1)  (* 15 C2)  (* 8 C3)  (* 3 C4)  (* 3 C5)  (* 2 C6)  (* 2 C7)  (* 2 C8)  (* 1 C9)  (* 0 C10) ))  (>= 4126 (+  (* 19 C1)  (* 15 C2)  (* 8 C3)  (* 3 C4)  (* 3 C5)  (* 2 C6)  (* 2 C7)  (* 2 C8)  (* 1 C9)  (* 0 C10) )) ) ( or  (>= 1320 (+  (* 6 C1)  (* 5 C2)  (* 3 C3)  (* 1 C4)  (* 1 C5)  (* 1 C6)  (* 1 C7)  (* 1 C8)  (* 1 C9)  (* 1 C10) ))  (>= 1390 (+  (* 7 C1)  (* 5 C2)  (* 3 C3)  (* 1 C4)  (* 1 C5)  (* 1 C6)  (* 1 C7)  (* 1 C8)  (* 1 C9)  (* 1 C10) ))  (>= 1540 (+  (* 7 C1)  (* 6 C2)  (* 3 C3)  (* 1 C4)  (* 1 C5)  (* 1 C6)  (* 1 C7)  (* 1 C8)  (* 1 C9)  (* 1 C10) ))  (>= 1590 (+  (* 8 C1)  (* 6 C2)  (* 3 C3)  (* 1 C4)  (* 1 C5)  (* 1 C6)  (* 1 C7)  (* 1 C8)  (* 1 C9)  (* 1 C10) ))  (>= 1619 (+  (* 8 C1)  (* 6 C2)  (* 4 C3)  (* 1 C4)  (* 1 C5)  (* 1 C6)  (* 1 C7)  (* 1 C8)  (* 1 C9)  (* 1 C10) ))  (>= 1668 (+  (* 8 C1)  (* 6 C2)  (* 4 C3)  (* 2 C4)  (* 1 C5)  (* 1 C6)  (* 1 C7)  (* 1 C8)  (* 1 C9)  (* 1 C10) ))  (>= 1760 (+  (* 8 C1)  (* 7 C2)  (* 4 C3)  (* 2 C4)  (* 1 C5)  (* 1 C6)  (* 1 C7)  (* 1 C8)  (* 1 C9)  (* 1 C10) ))  (>= 1939 (+  (* 9 C1)  (* 7 C2)  (* 4 C3)  (* 2 C4)  (* 1 C5)  (* 1 C6)  (* 1 C7)  (* 1 C8)  (* 1 C9)  (* 1 C10) ))  (>= 1946 (+  (* 9 C1)  (* 7 C2)  (* 4 C3)  (* 2 C4)  (* 2 C5)  (* 1 C6)  (* 1 C7)  (* 1 C8)  (* 1 C9)  (* 1 C10) ))  (>= 1980 (+  (* 9 C1)  (* 8 C2)  (* 4 C3)  (* 2 C4)  (* 2 C5)  (* 1 C6)  (* 1 C7)  (* 1 C8)  (* 1 C9)  (* 1 C10) ))  (>= 2120 (+  (* 10 C1)  (* 8 C2)  (* 4 C3)  (* 2 C4)  (* 2 C5)  (* 1 C6)  (* 1 C7)  (* 1 C8)  (* 1 C9)  (* 1 C10) ))  (>= 2200 (+  (* 10 C1)  (* 8 C2)  (* 5 C3)  (* 2 C4)  (* 2 C5)  (* 1 C6)  (* 1 C7)  (* 1 C8)  (* 1 C9)  (* 1 C10) ))  (>= 2222 (+  (* 11 C1)  (* 8 C2)  (* 5 C3)  (* 2 C4)  (* 2 C5)  (* 1 C6)  (* 1 C7)  (* 1 C8)  (* 1 C9)  (* 1 C10) ))  (>= 2860 (+  (* 13 C1)  (* 11 C2)  (* 6 C3)  (* 2 C4)  (* 2 C5)  (* 2 C6)  (* 1 C7)  (* 1 C8)  (* 1 C9)  (* 1 C10) ))  (>= 3058 (+  (* 14 C1)  (* 11 C2)  (* 6 C3)  (* 2 C4)  (* 2 C5)  (* 2 C6)  (* 1 C7)  (* 1 C8)  (* 1 C9)  (* 1 C10) ))  (>= 3080 (+  (* 14 C1)  (* 12 C2)  (* 6 C3)  (* 2 C4)  (* 2 C5)  (* 2 C6)  (* 1 C7)  (* 1 C8)  (* 1 C9)  (* 1 C10) ))  (>= 3180 (+  (* 15 C1)  (* 12 C2)  (* 6 C3)  (* 2 C4)  (* 2 C5)  (* 2 C6)  (* 1 C7)  (* 1 C8)  (* 1 C9)  (* 1 C10) ))  (>= 3238 (+  (* 15 C1)  (* 12 C2)  (* 7 C3)  (* 2 C4)  (* 2 C5)  (* 2 C6)  (* 1 C7)  (* 1 C8)  (* 1 C9)  (* 1 C10) ))  (>= 3300 (+  (* 15 C1)  (* 12 C2)  (* 7 C3)  (* 3 C4)  (* 2 C5)  (* 2 C6)  (* 1 C7)  (* 1 C8)  (* 1 C9)  (* 1 C10) ))  (>= 3336 (+  (* 16 C1)  (* 12 C2)  (* 7 C3)  (* 3 C4)  (* 2 C5)  (* 2 C6)  (* 1 C7)  (* 1 C8)  (* 1 C9)  (* 1 C10) ))  (>= 3490 (+  (* 16 C1)  (* 13 C2)  (* 7 C3)  (* 3 C4)  (* 2 C5)  (* 2 C6)  (* 1 C7)  (* 1 C8)  (* 1 C9)  (* 1 C10) ))  (>= 3520 (+  (* 16 C1)  (* 13 C2)  (* 7 C3)  (* 3 C4)  (* 2 C5)  (* 2 C6)  (* 2 C7)  (* 1 C8)  (* 1 C9)  (* 1 C10) ))  (>= 3614 (+  (* 17 C1)  (* 13 C2)  (* 7 C3)  (* 3 C4)  (* 2 C5)  (* 2 C6)  (* 2 C7)  (* 1 C8)  (* 1 C9)  (* 1 C10) ))  (>= 3710 (+  (* 17 C1)  (* 14 C2)  (* 7 C3)  (* 3 C4)  (* 2 C5)  (* 2 C6)  (* 2 C7)  (* 1 C8)  (* 1 C9)  (* 1 C10) ))  (>= 3740 (+  (* 17 C1)  (* 14 C2)  (* 8 C3)  (* 3 C4)  (* 2 C5)  (* 2 C6)  (* 2 C7)  (* 1 C8)  (* 1 C9)  (* 1 C10) ))  (>= 3840 (+  (* 18 C1)  (* 14 C2)  (* 8 C3)  (* 3 C4)  (* 2 C5)  (* 2 C6)  (* 2 C7)  (* 1 C8)  (* 1 C9)  (* 1 C10) ))  (>= 3878 (+  (* 18 C1)  (* 14 C2)  (* 8 C3)  (* 3 C4)  (* 2 C5)  (* 2 C6)  (* 2 C7)  (* 2 C8)  (* 1 C9)  (* 1 C10) ))  (>= 3892 (+  (* 18 C1)  (* 14 C2)  (* 8 C3)  (* 3 C4)  (* 3 C5)  (* 2 C6)  (* 2 C7)  (* 2 C8)  (* 1 C9)  (* 1 C10) ))  (>= 3960 (+  (* 18 C1)  (* 15 C2)  (* 8 C3)  (* 3 C4)  (* 3 C5)  (* 2 C6)  (* 2 C7)  (* 2 C8)  (* 1 C9)  (* 1 C10) ))  (>= 4126 (+  (* 19 C1)  (* 15 C2)  (* 8 C3)  (* 3 C4)  (* 3 C5)  (* 2 C6)  (* 2 C7)  (* 2 C8)  (* 1 C9)  (* 1 C10) ))  (>= 4170 (+  (* 19 C1)  (* 15 C2)  (* 8 C3)  (* 3 C4)  (* 3 C5)  (* 2 C6)  (* 2 C7)  (* 2 C8)  (* 2 C9)  (* 1 C10) ))  (>= 4180 (+  (* 19 C1)  (* 16 C2)  (* 8 C3)  (* 3 C4)  (* 3 C5)  (* 2 C6)  (* 2 C7)  (* 2 C8)  (* 2 C9)  (* 1 C10) ))  (>= 4240 (+  (* 20 C1)  (* 16 C2)  (* 8 C3)  (* 3 C4)  (* 3 C5)  (* 2 C6)  (* 2 C7)  (* 2 C8)  (* 2 C9)  (* 1 C10) ))  (>= 4400 (+  (* 20 C1)  (* 16 C2)  (* 9 C3)  (* 3 C4)  (* 3 C5)  (* 2 C6)  (* 2 C7)  (* 2 C8)  (* 2 C9)  (* 1 C10) ))  (>= 4444 (+  (* 21 C1)  (* 16 C2)  (* 9 C3)  (* 3 C4)  (* 3 C5)  (* 2 C6)  (* 2 C7)  (* 2 C8)  (* 2 C9)  (* 1 C10) ))  (>= 4620 (+  (* 21 C1)  (* 17 C2)  (* 9 C3)  (* 3 C4)  (* 3 C5)  (* 3 C6)  (* 2 C7)  (* 2 C8)  (* 2 C9)  (* 1 C10) ))  (>= 4726 (+  (* 22 C1)  (* 17 C2)  (* 9 C3)  (* 3 C4)  (* 3 C5)  (* 3 C6)  (* 2 C7)  (* 2 C8)  (* 2 C9)  (* 1 C10) ))  (>= 4754 (+  (* 22 C1)  (* 18 C2)  (* 9 C3)  (* 3 C4)  (* 3 C5)  (* 3 C6)  (* 2 C7)  (* 2 C8)  (* 2 C9)  (* 1 C10) )) )  (and (>= C1 2) (>= C2 2) (>= C3 5) (>= C4 16) (>= C5 19) (>= C6 22) (>= C7 34) (>= C8 38) (>= C9 41) (>= C10 47) )  (and (<= C1 122) (<= C2 155) (<= C3 296) (<= C4 905) (<= C5 1083) (<= C6 1242) (<= C7 1951) (<= C8 2146) (<= C9 2306) (<= C10 2657) ) )))
(=> $phi $goal))))